param sigma
: 1   2 :=
1 0.00001 0.99999
2 0.10000 0.90000
3 0.20000 0.80000
4 0.30000 0.70000
5 0.40000 0.60000
6 0.50000 0.50000
7 0.90000 0.10000
8 0.80000 0.20000
9 0.70000 0.30000
10 0.60000 0.40000
11 0.99999 0.00001
;

set S:=
1 2 3 4 5 6 7 8 9 10 11 12 13 14 15 16 17 18 19 20 21 22 23 24 25 26 27 28 29 30 31 32 33 34 35 36 37 38 39 40 41 42 43 44 45 46 47 48 49 50 51 52 53 54 55 56 57 58 59 60 61 62 63 64 65 66 67 68 69 70 71 72 73 74 75 76 77 78 79 80 81 82 83 84 ;

set C:=
1 2 3 4 5 6 7 8 9 10 11 12 ;

set A:=
1 2 3 4 5 6 7 8 9 10 11 12 13 14 15 16 17 18 19 20 21 22 23 ;

set T:=
1_1_2 1_3_4 1_5_6 1_7_8 1_9_10
2_1_2 2_3_4 2_5_6 2_7_8 2_9_10
;

set R:=
1 2 3 4 5 ;

set Ac[1]:=
1 2 ;
set Ac[2]:=
3 4 ;
set Ac[3]:=
5 6 ;
set Ac[4]:=
7 8 ;
set Ac[5]:=
9 10 ;
set Ac[6]:=
11 12 ;
set Ac[7]:=
13 14 ;
set Ac[8]:=
15 16 ;
set Ac[9]:=
17 18 ;
set Ac[10]:=
19 20 ;
set Ac[11]:=
21 22 ;
set Ac[12]:=
23 24 ;

set Cs[1]:=
3 1 8 11 6 2 ;
set Cs[2]:=
10 9 8 7 6 12 2 ;
set Cs[3]:=
4 9 8 10 11 ;
set Cs[4]:=
5 7 4 3 10 6 ;
set Cs[5]:=
7 5 6 2 10 ;
set Cs[6]:=
3 5 4 10 1 11 ;
set Cs[7]:=
2 11 10 7 3 4 ;
set Cs[8]:=
7 2 10 1 5 ;
set Cs[9]:=
6 9 3 4 1 ;
set Cs[10]:=
1 9 5 7 6 10 ;
set Cs[11]:=
5 8 1 10 2 ;
set Cs[12]:=
3 9 7 11 4 ;
set Cs[13]:=
2 11 6 10 8 ;
set Cs[14]:=
7 6 1 3 4 5 ;
set Cs[15]:=
10 1 7 6 9 8 ;
set Cs[16]:=
11 9 8 1 10 ;
set Cs[17]:=
4 5 1 9 8 12 ;
set Cs[18]:=
6 3 7 12 2 5 ;
set Cs[19]:=
10 11 1 3 6 ;
set Cs[20]:=
6 9 8 12 7 1 ;
set Cs[21]:=
7 9 12 10 3 ;
set Cs[22]:=
1 11 9 7 8 4 12 ;
set Cs[23]:=
7 2 8 6 11 ;
set Cs[24]:=
1 11 7 2 9 5 12 ;
set Cs[25]:=
2 11 7 10 3 4 ;
set Cs[26]:=
10 6 5 8 7 4 2 ;
set Cs[27]:=
12 10 7 2 1 6 9 ;
set Cs[28]:=
8 9 4 7 11 12 ;
set Cs[29]:=
12 4 3 1 11 5 8 ;
set Cs[30]:=
12 6 11 8 1 10 ;
set Cs[31]:=
4 2 3 8 7 ;
set Cs[32]:=
4 1 7 12 10 9 2 ;
set Cs[33]:=
6 3 10 9 1 ;
set Cs[34]:=
2 10 11 8 6 1 5 ;
set Cs[35]:=
1 11 4 2 5 9 8 ;
set Cs[36]:=
6 8 12 9 11 ;
set Cs[37]:=
5 10 4 1 2 ;
set Cs[38]:=
9 1 6 3 5 7 ;
set Cs[39]:=
4 12 11 3 1 10 ;
set Cs[40]:=
5 8 11 3 6 4 ;
set Cs[41]:=
4 12 5 3 10 ;
set Cs[42]:=
2 11 9 10 12 5 6 ;
set Cs[43]:=
12 8 9 3 2 1 4 ;
set Cs[44]:=
10 12 11 7 9 8 1 ;
set Cs[45]:=
6 10 1 2 5 11 8 ;
set Cs[46]:=
4 7 12 8 2 11 6 ;
set Cs[47]:=
7 11 2 5 1 9 6 ;
set Cs[48]:=
11 7 9 10 12 2 6 ;
set Cs[49]:=
6 2 4 11 8 ;
set Cs[50]:=
2 5 9 6 10 1 4 ;
set Cs[51]:=
6 1 10 8 11 7 9 ;
set Cs[52]:=
10 11 1 4 12 5 9 ;
set Cs[53]:=
6 1 7 12 3 10 ;
set Cs[54]:=
8 6 9 4 11 ;
set Cs[55]:=
10 1 7 9 12 8 ;
set Cs[56]:=
10 12 3 4 8 9 2 ;
set Cs[57]:=
11 1 7 9 8 ;
set Cs[58]:=
11 6 12 2 8 9 1 ;
set Cs[59]:=
4 3 8 1 9 6 2 ;
set Cs[60]:=
2 7 11 3 4 ;
set Cs[61]:=
4 12 10 9 1 7 ;
set Cs[62]:=
9 1 11 5 4 ;
set Cs[63]:=
8 3 1 11 9 4 5 ;
set Cs[64]:=
8 9 2 12 3 ;
set Cs[65]:=
2 4 9 8 11 1 ;
set Cs[66]:=
9 7 8 6 4 ;
set Cs[67]:=
12 5 11 8 10 2 ;
set Cs[68]:=
12 6 11 7 10 4 ;
set Cs[69]:=
11 2 10 12 7 ;
set Cs[70]:=
1 10 2 4 5 9 ;
set Cs[71]:=
12 9 10 1 3 2 4 ;
set Cs[72]:=
12 8 2 4 1 6 ;
set Cs[73]:=
2 7 3 4 12 5 11 ;
set Cs[74]:=
9 5 2 8 12 10 4 ;
set Cs[75]:=
4 10 12 7 3 ;
set Cs[76]:=
9 1 4 5 3 ;
set Cs[77]:=
2 8 9 12 1 11 3 ;
set Cs[78]:=
5 4 1 7 9 8 ;
set Cs[79]:=
2 3 5 7 6 4 ;
set Cs[80]:=
8 9 1 10 2 7 5 ;
set Cs[81]:=
1 6 7 10 5 9 12 ;
set Cs[82]:=
12 4 6 1 2 ;
set Cs[83]:=
10 12 7 3 6 5 ;
set Cs[84]:=
4 6 3 1 8 7 2 ;

set Ra[1]:=
1 2 3 4 5 ;
set Ra[2]:=
1 2 3 4 5 ;
set Ra[3]:=
1 2 3 4 5 ;
set Ra[4]:=
1 2 3 4 5 ;
set Ra[5]:=
1 2 3 4 5 ;
set Ra[6]:=
1 2 3 4 5 ;
set Ra[7]:=
1 2 3 4 5 ;
set Ra[8]:=
1 2 3 4 5 ;
set Ra[9]:=
1 2 3 4 5 ;
set Ra[10]:=
1 2 3 4 5 ;
set Ra[11]:=
1 2 3 4 5 ;
set Ra[12]:=
1 2 3 4 5 ;
set Ra[13]:=
1 2 3 4 5 ;
set Ra[14]:=
1 2 3 4 5 ;
set Ra[15]:=
1 2 3 4 5 ;
set Ra[16]:=
1 2 3 4 5 ;
set Ra[17]:=
1 2 3 4 5 ;
set Ra[18]:=
1 2 3 4 5 ;
set Ra[19]:=
1 2 3 4 5 ;
set Ra[20]:=
1 2 3 4 5 ;
set Ra[21]:=
1 2 3 4 5 ;
set Ra[22]:=
1 2 3 4 5 ;
set Ra[23]:=
1 2 3 4 5 ;

set Ts[1]:=
2_1_2 1_1_2 2_5_6 1_3_4 ;
set Ts[2]:=
2_9_10 2_3_4 1_3_4 ;
set Ts[3]:=
1_7_8 2_1_2 ;
set Ts[4]:=
1_7_8 2_9_10 ;
set Ts[5]:=
1_1_2 1_5_6 2_7_8 ;
set Ts[6]:=
1_3_4 1_1_2 2_1_2 2_9_10 ;
set Ts[7]:=
2_7_8 1_9_10 2_1_2 2_3_4 ;
set Ts[8]:=
1_1_2 1_9_10 ;
set Ts[9]:=
1_7_8 1_9_10 1_5_6 2_3_4 ;
set Ts[10]:=
2_7_8 2_9_10 ;
set Ts[11]:=
1_9_10 2_3_4 1_7_8 1_3_4 ;
set Ts[12]:=
2_1_2 1_5_6 ;
set Ts[13]:=
2_7_8 2_9_10 ;
set Ts[14]:=
1_5_6 1_7_8 ;
set Ts[15]:=
1_7_8 1_5_6 1_9_10 ;
set Ts[16]:=
2_3_4 1_9_10 ;
set Ts[17]:=
2_7_8 1_9_10 2_3_4 1_3_4 ;
set Ts[18]:=
1_5_6 2_7_8 1_7_8 2_5_6 ;
set Ts[19]:=
1_9_10 2_9_10 2_5_6 1_7_8 ;
set Ts[20]:=
1_3_4 2_3_4 2_9_10 1_7_8 ;
set Ts[21]:=
1_9_10 2_5_6 1_3_4 ;
set Ts[22]:=
1_1_2 1_9_10 2_3_4 ;
set Ts[23]:=
1_5_6 2_5_6 ;
set Ts[24]:=
1_7_8 2_7_8 2_5_6 1_3_4 ;
set Ts[25]:=
2_5_6 1_1_2 2_9_10 ;
set Ts[26]:=
2_5_6 2_1_2 ;
set Ts[27]:=
2_7_8 1_5_6 ;
set Ts[28]:=
1_3_4 1_1_2 ;
set Ts[29]:=
2_9_10 1_7_8 ;
set Ts[30]:=
1_1_2 2_3_4 2_9_10 2_7_8 ;
set Ts[31]:=
1_1_2 2_5_6 1_5_6 ;
set Ts[32]:=
2_3_4 1_1_2 2_5_6 ;
set Ts[33]:=
2_5_6 2_3_4 2_9_10 1_7_8 ;
set Ts[34]:=
1_9_10 2_1_2 1_1_2 ;
set Ts[35]:=
2_7_8 1_9_10 2_1_2 ;
set Ts[36]:=
1_9_10 1_5_6 2_3_4 2_7_8 ;
set Ts[37]:=
1_7_8 2_3_4 2_9_10 ;
set Ts[38]:=
2_7_8 2_9_10 2_3_4 ;
set Ts[39]:=
1_7_8 1_9_10 2_7_8 2_1_2 ;
set Ts[40]:=
2_3_4 1_7_8 2_5_6 ;
set Ts[41]:=
1_5_6 2_1_2 ;
set Ts[42]:=
2_9_10 1_5_6 2_3_4 ;
set Ts[43]:=
2_7_8 1_7_8 1_5_6 ;
set Ts[44]:=
1_1_2 1_5_6 1_7_8 ;
set Ts[45]:=
2_7_8 2_9_10 2_5_6 ;
set Ts[46]:=
2_3_4 1_7_8 2_1_2 ;
set Ts[47]:=
2_3_4 1_5_6 2_5_6 ;
set Ts[48]:=
2_7_8 1_1_2 2_3_4 ;
set Ts[49]:=
1_3_4 2_3_4 2_7_8 ;
set Ts[50]:=
1_3_4 2_7_8 2_9_10 ;
set Ts[51]:=
1_5_6 1_9_10 2_5_6 ;
set Ts[52]:=
1_3_4 2_9_10 2_7_8 2_3_4 ;
set Ts[53]:=
1_1_2 2_7_8 2_1_2 ;
set Ts[54]:=
1_1_2 2_9_10 ;
set Ts[55]:=
2_5_6 2_3_4 2_1_2 ;
set Ts[56]:=
1_1_2 1_9_10 ;
set Ts[57]:=
2_3_4 2_9_10 2_7_8 ;
set Ts[58]:=
2_5_6 2_1_2 2_7_8 1_9_10 ;
set Ts[59]:=
1_1_2 2_1_2 ;
set Ts[60]:=
1_9_10 2_5_6 2_9_10 2_7_8 ;
set Ts[61]:=
2_3_4 2_1_2 2_5_6 1_5_6 ;
set Ts[62]:=
1_7_8 1_3_4 1_9_10 2_5_6 ;
set Ts[63]:=
2_5_6 1_9_10 2_1_2 2_3_4 ;
set Ts[64]:=
2_7_8 1_1_2 1_7_8 1_3_4 ;
set Ts[65]:=
1_9_10 1_3_4 ;
set Ts[66]:=
1_3_4 2_1_2 ;
set Ts[67]:=
2_7_8 1_7_8 2_5_6 2_3_4 ;
set Ts[68]:=
2_5_6 2_9_10 2_1_2 ;
set Ts[69]:=
1_3_4 2_3_4 1_5_6 2_9_10 ;
set Ts[70]:=
2_1_2 1_9_10 2_7_8 ;
set Ts[71]:=
1_1_2 2_9_10 1_3_4 ;
set Ts[72]:=
1_5_6 1_9_10 1_3_4 2_9_10 ;
set Ts[73]:=
1_5_6 1_1_2 ;
set Ts[74]:=
1_1_2 1_5_6 ;
set Ts[75]:=
2_9_10 1_5_6 ;
set Ts[76]:=
2_9_10 1_7_8 ;
set Ts[77]:=
2_5_6 2_9_10 ;
set Ts[78]:=
2_3_4 2_1_2 2_7_8 ;
set Ts[79]:=
1_1_2 1_3_4 2_5_6 ;
set Ts[80]:=
1_1_2 2_1_2 1_3_4 1_9_10 ;
set Ts[81]:=
2_5_6 2_1_2 ;
set Ts[82]:=
2_3_4 2_7_8 ;
set Ts[83]:=
1_5_6 2_3_4 2_7_8 2_9_10 ;
set Ts[84]:=
2_1_2 1_7_8 2_3_4 ;

param rho:=
1 84
2 84
3 84
4 84
5 84
;

param sigma_class:=
1 84
2 84
3 84
4 84
5 84
6 84
7 84
;

param kmin:=
1 3
2 3
3 2
4 3
5 2
6 3
7 3
8 2
9 2
10 3
11 2
12 2
13 2
14 3
15 3
16 2
17 3
18 3
19 2
20 3
21 2
22 3
23 2
24 3
25 3
26 3
27 3
28 3
29 3
30 3
31 2
32 3
33 2
34 3
35 3
36 2
37 2
38 3
39 3
40 3
41 2
42 3
43 3
44 3
45 3
46 3
47 3
48 3
49 2
50 3
51 3
52 3
53 3
54 2
55 3
56 3
57 2
58 3
59 3
60 2
61 3
62 2
63 3
64 2
65 3
66 2
67 3
68 3
69 2
70 3
71 3
72 3
73 3
74 3
75 2
76 2
77 3
78 3
79 3
80 3
81 3
82 2
83 3
84 3
;

param kmax:=
1 6
2 7
3 5
4 6
5 5
6 6
7 6
8 5
9 5
10 6
11 5
12 5
13 5
14 6
15 6
16 5
17 6
18 6
19 5
20 6
21 5
22 7
23 5
24 7
25 6
26 7
27 7
28 6
29 7
30 6
31 5
32 7
33 5
34 7
35 7
36 5
37 5
38 6
39 6
40 6
41 5
42 7
43 7
44 7
45 7
46 7
47 7
48 7
49 5
50 7
51 7
52 7
53 6
54 5
55 6
56 7
57 5
58 7
59 7
60 5
61 6
62 5
63 7
64 5
65 6
66 5
67 6
68 6
69 5
70 6
71 7
72 6
73 7
74 7
75 5
76 5
77 7
78 6
79 6
80 7
81 7
82 5
83 6
84 7
;

